(set-logic QF_LRA)
(declare-fun T1 () Real )
(declare-fun T2 () Real )
(declare-fun T3 () Real )
(declare-fun T4 () Real )
(declare-fun T5 () Real )
(declare-fun T6 () Real )
(declare-fun Z () Real )
(assert ( and 
(or ( <= ( + T1 88 ) T2 ) ( <= ( + T2 25 ) T1 ) )
(or ( <= ( + T1 186 )  ( + T2 25 ) ) ( <= ( + T2 92 )( + T1 88 ) ) )
(or ( <= ( + T1 240 )  ( + T2 92 ) ) ( <= ( + T2 137 )( + T1 186 ) ) )
(or ( <= ( + T1 337 )  ( + T2 137 ) ) ( <= ( + T2 223 )( + T1 240 ) ) )
(or ( <= ( + T1 88 ) T3 ) ( <= ( + T3 42 ) T1 ) )
(or ( <= ( + T1 186 )  ( + T3 42 ) ) ( <= ( + T3 55 )( + T1 88 ) ) )
(or ( <= ( + T1 240 )  ( + T3 55 ) ) ( <= ( + T3 82 )( + T1 186 ) ) )
(or ( <= ( + T1 337 )  ( + T3 82 ) ) ( <= ( + T3 90 )( + T1 240 ) ) )
(or ( <= ( + T1 88 ) T4 ) ( <= ( + T4 82 ) T1 ) )
(or ( <= ( + T1 186 )  ( + T4 82 ) ) ( <= ( + T4 112 )( + T1 88 ) ) )
(or ( <= ( + T1 240 )  ( + T4 112 ) ) ( <= ( + T4 150 )( + T1 186 ) ) )
(or ( <= ( + T1 337 )  ( + T4 150 ) ) ( <= ( + T4 220 )( + T1 240 ) ) )
(or ( <= ( + T1 88 ) T5 ) ( <= ( + T5 74 ) T1 ) )
(or ( <= ( + T1 186 )  ( + T5 74 ) ) ( <= ( + T5 99 )( + T1 88 ) ) )
(or ( <= ( + T1 240 )  ( + T5 99 ) ) ( <= ( + T5 147 )( + T1 186 ) ) )
(or ( <= ( + T1 337 )  ( + T5 147 ) ) ( <= ( + T5 151 )( + T1 240 ) ) )
(or ( <= ( + T1 88 ) T6 ) ( <= ( + T6 54 ) T1 ) )
(or ( <= ( + T1 186 )  ( + T6 54 ) ) ( <= ( + T6 83 )( + T1 88 ) ) )
(or ( <= ( + T1 240 )  ( + T6 83 ) ) ( <= ( + T6 164 )( + T1 186 ) ) )
(or ( <= ( + T1 337 )  ( + T6 164 ) ) ( <= ( + T6 217 )( + T1 240 ) ) )
(or ( <= ( + T2 25 ) T3 ) ( <= ( + T3 42 ) T2 ) )
(or ( <= ( + T2 92 )  ( + T3 42 ) ) ( <= ( + T3 55 )( + T2 25 ) ) )
(or ( <= ( + T2 137 )  ( + T3 55 ) ) ( <= ( + T3 82 )( + T2 92 ) ) )
(or ( <= ( + T2 223 )  ( + T3 82 ) ) ( <= ( + T3 90 )( + T2 137 ) ) )
(or ( <= ( + T2 25 ) T4 ) ( <= ( + T4 82 ) T2 ) )
(or ( <= ( + T2 92 )  ( + T4 82 ) ) ( <= ( + T4 112 )( + T2 25 ) ) )
(or ( <= ( + T2 137 )  ( + T4 112 ) ) ( <= ( + T4 150 )( + T2 92 ) ) )
(or ( <= ( + T2 223 )  ( + T4 150 ) ) ( <= ( + T4 220 )( + T2 137 ) ) )
(or ( <= ( + T2 25 ) T5 ) ( <= ( + T5 74 ) T2 ) )
(or ( <= ( + T2 92 )  ( + T5 74 ) ) ( <= ( + T5 99 )( + T2 25 ) ) )
(or ( <= ( + T2 137 )  ( + T5 99 ) ) ( <= ( + T5 147 )( + T2 92 ) ) )
(or ( <= ( + T2 223 )  ( + T5 147 ) ) ( <= ( + T5 151 )( + T2 137 ) ) )
(or ( <= ( + T2 25 ) T6 ) ( <= ( + T6 54 ) T2 ) )
(or ( <= ( + T2 92 )  ( + T6 54 ) ) ( <= ( + T6 83 )( + T2 25 ) ) )
(or ( <= ( + T2 137 )  ( + T6 83 ) ) ( <= ( + T6 164 )( + T2 92 ) ) )
(or ( <= ( + T2 223 )  ( + T6 164 ) ) ( <= ( + T6 217 )( + T2 137 ) ) )
(or ( <= ( + T3 42 ) T4 ) ( <= ( + T4 82 ) T3 ) )
(or ( <= ( + T3 55 )  ( + T4 82 ) ) ( <= ( + T4 112 )( + T3 42 ) ) )
(or ( <= ( + T3 82 )  ( + T4 112 ) ) ( <= ( + T4 150 )( + T3 55 ) ) )
(or ( <= ( + T3 90 )  ( + T4 150 ) ) ( <= ( + T4 220 )( + T3 82 ) ) )
(or ( <= ( + T3 42 ) T5 ) ( <= ( + T5 74 ) T3 ) )
(or ( <= ( + T3 55 )  ( + T5 74 ) ) ( <= ( + T5 99 )( + T3 42 ) ) )
(or ( <= ( + T3 82 )  ( + T5 99 ) ) ( <= ( + T5 147 )( + T3 55 ) ) )
(or ( <= ( + T3 90 )  ( + T5 147 ) ) ( <= ( + T5 151 )( + T3 82 ) ) )
(or ( <= ( + T3 42 ) T6 ) ( <= ( + T6 54 ) T3 ) )
(or ( <= ( + T3 55 )  ( + T6 54 ) ) ( <= ( + T6 83 )( + T3 42 ) ) )
(or ( <= ( + T3 82 )  ( + T6 83 ) ) ( <= ( + T6 164 )( + T3 55 ) ) )
(or ( <= ( + T3 90 )  ( + T6 164 ) ) ( <= ( + T6 217 )( + T3 82 ) ) )
(or ( <= ( + T4 82 ) T5 ) ( <= ( + T5 74 ) T4 ) )
(or ( <= ( + T4 112 )  ( + T5 74 ) ) ( <= ( + T5 99 )( + T4 82 ) ) )
(or ( <= ( + T4 150 )  ( + T5 99 ) ) ( <= ( + T5 147 )( + T4 112 ) ) )
(or ( <= ( + T4 220 )  ( + T5 147 ) ) ( <= ( + T5 151 )( + T4 150 ) ) )
(or ( <= ( + T4 82 ) T6 ) ( <= ( + T6 54 ) T4 ) )
(or ( <= ( + T4 112 )  ( + T6 54 ) ) ( <= ( + T6 83 )( + T4 82 ) ) )
(or ( <= ( + T4 150 )  ( + T6 83 ) ) ( <= ( + T6 164 )( + T4 112 ) ) )
(or ( <= ( + T4 220 )  ( + T6 164 ) ) ( <= ( + T6 217 )( + T4 150 ) ) )
(or ( <= ( + T5 74 ) T6 ) ( <= ( + T6 54 ) T5 ) )
(or ( <= ( + T5 99 )  ( + T6 54 ) ) ( <= ( + T6 83 )( + T5 74 ) ) )
(or ( <= ( + T5 147 )  ( + T6 83 ) ) ( <= ( + T6 164 )( + T5 99 ) ) )
(or ( <= ( + T5 151 )  ( + T6 164 ) ) ( <= ( + T6 217 )( + T5 147 ) ) )
( <= ( + T1 337 ) Z)
( <= ( + T2 223 ) Z)
( <= ( + T3 90 ) Z)
( <= ( + T4 220 ) Z)
( <= ( + T5 151 ) Z)
( <= ( + T6 217 ) Z)
( >= T1 0 )
( >= T2 0 )
( >= T3 0 )
( >= T4 0 )
( >= T5 0 )
( >= T6 0 )
) )
(minimize Z)
(check-sat)